(set-logic HORN)
(declare-fun state (Bool Bool Bool Bool Int Int (Array Int Int) Int Int Int) Bool)
(assert (forall ((|!pc[3]| Bool) (|!pc[2]| Bool) (|!pc[1]| Bool) (|!pc[0]| Bool) (|!{N}| Int) (|!{x}| Int) (|!{a.1}| (Array Int Int)) (|!{i}| Int) (|arrlambda_0| Int) (|proph0| Int) (|!{a.1}.next| (Array Int Int)) (|proph0.next| Int) (|!{x}.next| Int) (|arrlambda_0.next| Int) (|nd<0>| Int) (|!{N}.next| Int) (|!{i}.next| Int) (|%{x}#1| Int) (|%{a.1}#1| (Array Int Int)) (|!pc[3].next| Bool) (|!pc[1].next| Bool) (|!pc[0].next| Bool) (|!pc[2].next| Bool)) (=> (and (and (and (not |!pc[0]|) (not |!pc[1]|)) (not |!pc[2]|)) (not |!pc[3]|)) (state |!pc[3]| |!pc[2]| |!pc[1]| |!pc[0]| |!{N}| |!{x}| |!{a.1}| |!{i}| |arrlambda_0| |proph0|))))
(assert (forall ((|!pc[3]| Bool) (|!pc[2]| Bool) (|!pc[1]| Bool) (|!pc[0]| Bool) (|!{N}| Int) (|!{x}| Int) (|!{a.1}| (Array Int Int)) (|!{i}| Int) (|arrlambda_0| Int) (|proph0| Int) (|!{a.1}.next| (Array Int Int)) (|proph0.next| Int) (|!{x}.next| Int) (|arrlambda_0.next| Int) (|nd<0>| Int) (|!{N}.next| Int) (|!{i}.next| Int) (|%{x}#1| Int) (|%{a.1}#1| (Array Int Int)) (|!pc[3].next| Bool) (|!pc[1].next| Bool) (|!pc[0].next| Bool) (|!pc[2].next| Bool)) (=> (and (state |!pc[3]| |!pc[2]| |!pc[1]| |!pc[0]| |!{N}| |!{x}| |!{a.1}| |!{i}| |arrlambda_0| |proph0|) (let ((.def_20 (not |!pc[0]|))) (let ((.def_21 (not |!pc[1]|))) (let ((.def_23 (not |!pc[2]|))) (let ((.def_24 (and (and .def_20 .def_21) .def_23))) (let ((.def_25 (not |!pc[3]|))) (let ((.def_28 (store |!{a.1}| |!{i}| 47))) (let ((.def_29 (select .def_28 proph0))) (let ((.def_30 (select |!{a.1}| proph0))) (let ((.def_35 (select |!{a.1}.next| proph0))) (let ((.def_37 (= .def_28 |!{a.1}.next|))) (let ((.def_38 (not .def_37))) (let ((.def_41 (= |!{a.1}| |!{a.1}.next|))) (let ((.def_42 (not .def_41))) (let ((.def_45 (store |!{a.1}| |!{i}| 43))) (let ((.def_46 (= |!{a.1}.next| .def_45))) (let ((.def_48 (select .def_45 |!{i}|))) (let ((.def_49 (select |!{a.1}.next| |!{i}|))) (let ((.def_53 (store |!{a.1}| |!{i}| 44))) (let ((.def_54 (= |!{a.1}.next| .def_53))) (let ((.def_56 (select .def_53 |!{i}|))) (let ((.def_63 (select .def_28 |!{i}|))) (let ((.def_81 (= |!{i}.next| 0))) (let ((.def_91 (not |!pc[3].next|))) (let ((.def_93 (not |!pc[1].next|))) (let ((.def_95 (and .def_93 |!pc[0].next|))) (let ((.def_97 (not |!pc[2].next|))) (let ((.def_98 (and .def_95 .def_97))) (let ((.def_99 (and .def_91 .def_98))) (let ((.def_103 (= (select |!{a.1}| |!{x}|) 47))) (let ((.def_105 (= |!{N}| |!{N}.next|))) (let ((.def_107 (= |!{i}| |!{i}.next|))) (let ((.def_109 (= |!{x}| |!{x}.next|))) (let ((.def_112 (<= |!{N}| |!{x}|))) (let ((.def_113 (not .def_112))) (let ((.def_115 (and |!pc[1].next| |!pc[0].next|))) (let ((.def_118 (and |!pc[1]| .def_20))) (let ((.def_120 (and .def_25 (and .def_23 .def_118)))) (let ((.def_128 (and .def_105 .def_107))) (let ((.def_130 (and .def_41 (and (= (+ |!{x}| (* (- 1) |!{x}.next|)) (- 1)) .def_128)))) (let ((.def_133 (not |!pc[0].next|))) (let ((.def_134 (and |!pc[1].next| .def_133))) (let ((.def_136 (and .def_91 (and .def_97 .def_134)))) (let ((.def_144 (and .def_93 .def_133))) (let ((.def_151 (and |!pc[1]| |!pc[0]|))) (let ((.def_153 (and .def_25 (and .def_23 .def_151)))) (let ((.def_163 (and .def_109 (and .def_105 (= (+ |!{i}| (* (- 1) |!{i}.next|)) (- 1)))))) (let ((.def_165 (<= |!{N}| |!{i}|))) (let ((.def_166 (not .def_165))) (let ((.def_168 (and |!pc[0]| .def_21))) (let ((.def_170 (and .def_25 (and |!pc[2]| .def_168)))) (let ((.def_172 (and .def_91 (and .def_95 |!pc[2].next|)))) (let ((.def_189 (and .def_25 (and |!pc[2]| .def_118)))) (let ((.def_191 (and .def_91 (and |!pc[2].next| .def_134)))) (let ((.def_198 (and .def_165 (and .def_41 (and .def_109 (and .def_81 .def_105)))))) (let ((.def_208 (and .def_25 (and |!pc[2]| .def_151)))) (let ((.def_210 (and .def_91 (and |!pc[2].next| .def_115)))) (let ((.def_219 (and |!pc[3]| .def_24))) (let ((.def_221 (and |!pc[3].next| (and .def_97 .def_144)))) (let ((.def_230 (and .def_23 .def_168))) (let ((.def_231 (and |!pc[3]| .def_230))) (let ((.def_232 (and |!pc[3].next| .def_98))) (let ((.def_244 (and .def_25 .def_230))) (let ((.def_255 (store |!{a.1}.next| |!{i}.next| 47))) (and (and (or (= .def_29 .def_30) (= |!{i}| proph0)) (and (or (= .def_29 .def_35) .def_38) (and (or (= .def_30 .def_35) .def_42) (and (or (not .def_46) (= .def_48 .def_49)) (and (or (not .def_54) (= .def_49 .def_56)) (and (and (= .def_48 43) (and (and (= .def_56 44) (and (= proph0 proph0.next) (and (or .def_38 (= .def_49 .def_63)) (and (or .def_42 (= (select |!{a.1}| |!{x}.next|) (select |!{a.1}.next| |!{x}.next|))) (and (and (= .def_63 47) (and (and (= arrlambda_0 arrlambda_0.next) (or (or (or (or (or (or (or (or (and (and (not (<= nd<0> 0)) (and (and (and (= nd<0> |!{N}.next|) .def_81) (= |!{x}.next| |%{x}#1|)) (= |!{a.1}.next| |%{a.1}#1|))) (and (and .def_24 .def_25) .def_99)) (or (or (and (and (and .def_41 (and (and (and (not .def_103) .def_105) .def_107) .def_109)) .def_113) (and (and .def_91 (and .def_97 .def_115)) .def_120)) (and (and .def_113 (and .def_103 .def_130)) (and .def_120 .def_136))) (and (and .def_41 (and .def_109 (and .def_107 (and .def_105 .def_112)))) (and .def_120 (and .def_91 (and |!pc[2].next| .def_144)))))) (and .def_130 (and .def_136 .def_153))) (or (and (and (and .def_37 .def_163) .def_166) (and .def_170 .def_172)) (and (and .def_165 (and .def_41 (and .def_128 (= |!{x}.next| 0)))) (and .def_136 .def_170)))) (or (and (and .def_166 (and .def_163 (= |!{a.1}.next| (store |!{a.1}| |!{i}| 46)))) (and .def_189 .def_191)) (and (and .def_172 .def_189) .def_198))) (or (and (and .def_166 (and .def_163 (= |!{a.1}.next| (store |!{a.1}| |!{i}| 45)))) (and .def_208 .def_210)) (and .def_198 (and .def_191 .def_208)))) (or (and (and .def_166 (and .def_54 .def_163)) (and .def_219 .def_221)) (and .def_198 (and .def_210 .def_219)))) (or (and (and .def_166 (and .def_46 .def_163)) (and .def_231 .def_232)) (and .def_198 (and .def_221 .def_231)))) (or (and (and .def_166 (and .def_163 (= |!{a.1}.next| (store |!{a.1}| |!{i}| 42)))) (and .def_99 .def_244)) (and .def_198 (and .def_232 .def_244))))) (not .def_153))) (= (select .def_255 |!{i}.next|) 47)))))) (= (select (store |!{a.1}.next| |!{i}.next| 44) |!{i}.next|) 44))) (= (select (store |!{a.1}.next| |!{i}.next| 43) |!{i}.next|) 43))))))) (or (= (select |!{a.1}.next| proph0.next) (select .def_255 proph0.next)) (= proph0.next |!{i}.next|))))))))))))))))))))))))))))))))))))))))))))))))))))))))))))))))))) (state |!pc[3].next| |!pc[2].next| |!pc[1].next| |!pc[0].next| |!{N}.next| |!{x}.next| |!{a.1}.next| |!{i}.next| |arrlambda_0.next| |proph0.next|))))
(assert (forall ((|!pc[3]| Bool) (|!pc[2]| Bool) (|!pc[1]| Bool) (|!pc[0]| Bool) (|!{N}| Int) (|!{x}| Int) (|!{a.1}| (Array Int Int)) (|!{i}| Int) (|arrlambda_0| Int) (|proph0| Int) (|!{a.1}.next| (Array Int Int)) (|proph0.next| Int) (|!{x}.next| Int) (|arrlambda_0.next| Int) (|nd<0>| Int) (|!{N}.next| Int) (|!{i}.next| Int) (|%{x}#1| Int) (|%{a.1}#1| (Array Int Int)) (|!pc[3].next| Bool) (|!pc[1].next| Bool) (|!pc[0].next| Bool) (|!pc[2].next| Bool)) (=> (state |!pc[3]| |!pc[2]| |!pc[1]| |!pc[0]| |!{N}| |!{x}| |!{a.1}| |!{i}| |arrlambda_0| |proph0|) (or (not (and (not |!pc[3]|) (and (not |!pc[2]|) (and |!pc[1]| |!pc[0]|)))) (not (= |!{x}| proph0))))))
(check-sat)
